(declare-const p875 Real)
(declare-const fee_bl Real)
(declare-const p660 Real)
(declare-const p335 Real)
(declare-const p760 Real)
(declare-const income Real)
(assert (= p335 (* 0.0335 (ite (> income 79950) 79950 income))))
(assert (= p660 (ite (> income 79950) (* 0.0660 (- (ite (> income 193300) 193300 income) 79950)) 0)))
(assert (= p760 (ite (> income 193300) (* 0.0760 (- (ite (> income 294600) 294600 income) 193300)) 0)))
(assert (= p875 (ite (> income 294600) (* 0.0875 (- income 294600)) 0)))
(assert (= fee_bl (+ (+ (+ p335 p660) p760) p875)))